p cnf 21 45
a 17 15 0
e 1 2 3 4 5 6 7 8 9 10 11 12 13 14 16 18 19 20 21 0
-3 -1 0
-3 2 0
1 -2 3 0
-4 3 0
-4 3 0
-3 4 0
2 -5 0
-2 -5 0
8 6 0
8 -7 0
-6 7 -8 0
-9 5 0
-9 8 0
-5 -8 9 0
-10 -4 0
-10 -9 0
4 9 10 0
11 -7 0
11 -1 0
7 1 -11 0
15 -13 0
15 14 0
13 -14 -15 0
-16 -12 0
-16 -15 0
12 15 16 0
17 -11 0
17 16 0
11 -16 -17 0
19 13 0
19 18 0
-13 -18 -19 0
-17 -19 -20 0
17 19 -20 0
-17 19 20 0
17 -19 20 0
10 20 -21 0
-10 -20 -21 0
10 -20 21 0
-10 20 21 0
17 -2 -4 15 0
17 -7 5 -4 0
11 14 17 13 16 19 3 0
14 -15 -13 6 2 3 4 0
21 0
